row=10;
column=10;
Board=[|2,3,3,3,4,5,2,5,4,4|2,3,3,3,4,2,2,4,5,5|3,2,2,2,8,8,4,5,6,5|3,2,2,2,7,7,4,8,4,5|3,2,2,2,3,8,8,5,5,6|8,5,4,8,1,1,1,4,5,4|7,5,5,7,1,1,1,4,4,4|6,8,7,6,3,3,6,1,1,1|6,7,6,3,3,3,7,1,1,1|2,5,7,6,6,5,4,1,1,1|];
right = [16,3,7,17,11,18,8,7,0,0];
bottom = [20,3,11,7,0,22,2,13,9,0];
